benchmark_str_length/p2_10_6-4.dzn
Alphabet = {A,C,G,T};
ns = 10;
nc = 6;
sl = 10;
neighbours = [| I(C),I(T),I(G),I(G),Null,Null | I(A),I(G),I(T),I(C),I(A),I(C) | I(A),Null,Null,Null,Null,Null | I(A),I(A),Null,Null,Null,Null | I(C),I(T),I(G),I(A),I(G),Null | I(T),I(T),I(T),Null,Null,Null | I(T),I(A),I(C),I(T),I(C),Null | I(T),I(T),I(C),I(A),Null,Null | I(C),I(A),I(C),I(T),I(C),I(A) | I(C),I(A),I(C),I(G),I(A),Null |];
