benchmark_str_length/p2_10_6-4.txt
{
	"num_strings": 10,
	"alphabet": "ACGT",
	"strings": [
		"CTGG",
		"AGTCAC",
		"A",
		"AA",
		"CTGAG",
		"TTT",
		"TACTC",
		"TTCA",
		"CACTCA",
		"CACGA"
	],
	"str_length":[4,6,1,2,5,3,5,4,6,5]
}